c A SAT instance generated from a 3-CNF formula that had 40 clauses and 10 variables
p cnf 10 40
-1 9 6 0
10 6 -1 0
4 9 -7 0
-6 9 1 0
-7 -2 -4 0
6 1 -3 0
-8 -7 -5 0
6 -5 7 0
2 -8 7 0
6 -7 -3 0
-4 2 -3 0
-9 -6 -5 0
-7 5 -3 0
3 1 -9 0
-10 -6 8 0
9 -6 -5 0
-4 -8 2 0
-7 1 5 0
-6 -3 8 0
-6 -10 1 0
-1 -6 10 0
2 6 -5 0
3 -9 4 0
-10 8 -2 0
-8 4 3 0
-10 -3 5 0
8 10 -3 0
1 -9 -7 0
1 -2 7 0
-2 -3 -8 0
-6 5 -4 0
5 3 -8 0
1 10 -9 0
4 2 -8 0
1 4 9 0
-8 4 9 0
6 -1 3 0
-6 10 -1 0
-2 -8 5 0
6 -1 -10 0
